* Signature: 0xb3e857e32bfaa47e
NAME idol-model
ROWS
 N  OBJ
 L  c_460   
COLUMNS
    MARKER    'MARKER'                 'INTORG'
    u_0       c_460     1
    u_1       c_460     1
    u_2       c_460     1
    u_3       c_460     1
    u_4       c_460     1
    u_5       c_460     1
    u_6       c_460     1
    u_7       c_460     1
    u_8       c_460     1
    u_9       c_460     1
    MARKER    'MARKER'                 'INTEND'
RHS
    RHS1      c_460     2
BOUNDS
 BV BND1      u_0     
 BV BND1      u_1     
 BV BND1      u_2     
 BV BND1      u_3     
 BV BND1      u_4     
 BV BND1      u_5     
 BV BND1      u_6     
 BV BND1      u_7     
 BV BND1      u_8     
 BV BND1      u_9     
ENDATA
